C                                       
   1.78355045158000     
     4.0000000000000000    4.0000000000000000    0.0000000000000000
     0.0000000000000000    4.0000000000000000    4.0000000000000000
     4.0000000000000000    0.0000000000000000    4.0000000000000000
   C    Ge
   126     1
Direct
 -0.0001542523507216 -0.0001542523507216 -0.0001542523507216
  0.0623251367732522  0.0623251367732522  0.0623251367732522
 -0.0002155095990361 -0.0002155095990361  0.2497977187477231
  0.0622861538429626  0.0622861538429626  0.3122593620689914
 -0.0002155095990361  0.2497977187477231 -0.0002155095990361
  0.0622861538429626  0.3122593620689914  0.0622861538429626
  0.0001162178342433  0.2496702491078529  0.2496702491078529
  0.0634209248087826  0.3119566834006187  0.3119566834006187
  0.2497977187477231 -0.0002155095990361 -0.0002155095990361
  0.3122593620689914  0.0622861538429626  0.0622861538429626
  0.2496702491078529  0.0001162178342433  0.2496702491078529
  0.3119566834006187  0.0634209248087826  0.3119566834006187
  0.2496702491078529  0.2496702491078529  0.0001162178342433
  0.3119566834006187  0.3119566834006187  0.0634209248087826
  0.2500490742982554  0.2500490742982554  0.2500490742982554
  0.3129199066123679  0.3129199066123679  0.3129199066123679
 -0.0004546981788490 -0.0004546981788490  0.4999181375692808
  0.0624485620795793  0.0624485620795793  0.5622261848013506
 -0.0002829943825842 -0.0002829943825842  0.7498965057680665
  0.0622926652526041  0.0622926652526041  0.8123108827745095
  0.0025869911380106  0.2474675264438499  0.4999682338046185
  0.0634255428443556  0.3121016677367991  0.5622635786264493
 -0.0000936804292545  0.2497257111688505  0.7497991419954765
  0.0621485613595959  0.3122506469209429  0.8122898659171834
  0.2474675264438499  0.0025869911380106  0.4999682338046185
  0.3121016677367991  0.0634255428443556  0.5622635786264493
  0.2497257111688505 -0.0000936804292545  0.7497991419954765
  0.3122506469209429  0.0621485613595959  0.8122898659171834
  0.2509727774817218  0.2509727774817218  0.5002748359929003
  0.3138341890073991  0.3138341890073991  0.5631824869493874
  0.2499929682471711  0.2499929682471711  0.7501567838666126
  0.3119795369278961  0.3119795369278961  0.8128878738347041
 -0.0004546981788490  0.4999181375692808 -0.0004546981788490
  0.0624485620795793  0.5622261848013506  0.0624485620795793
  0.0025869911380106  0.4999682338046185  0.2474675264438499
  0.0634255428443556  0.5622635786264493  0.3121016677367991
 -0.0002829943825842  0.7498965057680665 -0.0002829943825842
  0.0622926652526041  0.8123108827745095  0.0622926652526041
 -0.0000936804292545  0.7497991419954765  0.2497257111688505
  0.0621485613595959  0.8122898659171834  0.3122506469209429
  0.2474675264438499  0.4999682338046185  0.0025869911380106
  0.3121016677367991  0.5622635786264493  0.0634255428443556
  0.2509727774817218  0.5002748359929003  0.2509727774817218
  0.3138341890073991  0.5631824869493874  0.3138341890073991
  0.2497257111688505  0.7497991419954765 -0.0000936804292545
  0.3122506469209429  0.8122898659171834  0.0621485613595959
  0.2499929682471711  0.7501567838666126  0.2499929682471711
  0.3119795369278961  0.8128878738347041  0.3119795369278961
  0.0001724267504055  0.4995758514018583  0.4995758514018583
  0.0618441545279296  0.5623977798714166  0.5623977798714166
 -0.0013999403497355  0.4997054290292452  0.7499059870700050
  0.0593688334629597  0.5620625112365236  0.8145601196840426
 -0.0013999403497355  0.7499059870700050  0.4997054290292452
  0.0593688334629597  0.8145601196840426  0.5620625112365236
 -0.0014664681489216  0.7500305197204015  0.7500305197204015
  0.0618361817678795  0.8123538553465071  0.8123538553465071
  0.2513048729957721  0.5017321956871851  0.5017321956871851
  0.2982571545618879  0.5709432416347016  0.5709432416347016
  0.2439748219398323  0.5013510583824260  0.7537991356275976
  0.3082121943902228  0.5606582373296923  0.8179740407984450
  0.2439748219398323  0.7537991356275976  0.5013510583824260
  0.3082121943902228  0.8179740407984450  0.5606582373296923
  0.2490903516577176  0.7500434822747494  0.7500434822747494
  0.3118041440597526  0.8120318541181587  0.8120318541181587
  0.4999181375692808 -0.0004546981788490 -0.0004546981788490
  0.5622261848013506  0.0624485620795793  0.0624485620795793
  0.4999682338046185  0.0025869911380106  0.2474675264438499
  0.5622635786264493  0.0634255428443556  0.3121016677367991
  0.4999682338046185  0.2474675264438499  0.0025869911380106
  0.5622635786264493  0.3121016677367991  0.0634255428443556
  0.5002748359929003  0.2509727774817218  0.2509727774817218
  0.5631824869493874  0.3138341890073991  0.3138341890073991
  0.7498965057680665 -0.0002829943825842 -0.0002829943825842
  0.8123108827745095  0.0622926652526041  0.0622926652526041
  0.7497991419954765 -0.0000936804292545  0.2497257111688505
  0.8122898659171834  0.0621485613595959  0.3122506469209429
  0.7497991419954765  0.2497257111688505 -0.0000936804292545
  0.8122898659171834  0.3122506469209429  0.0621485613595959
  0.7501567838666126  0.2499929682471711  0.2499929682471711
  0.8128878738347041  0.3119795369278961  0.3119795369278961
  0.4995758514018583  0.0001724267504055  0.4995758514018583
  0.5623977798714166  0.0618441545279296  0.5623977798714166
  0.4997054290292452 -0.0013999403497355  0.7499059870700050
  0.5620625112365236  0.0593688334629597  0.8145601196840426
  0.5017321956871851  0.2513048729957721  0.5017321956871851
  0.5709432416347016  0.2982571545618879  0.5709432416347016
  0.5013510583824260  0.2439748219398323  0.7537991356275976
  0.5606582373296923  0.3082121943902228  0.8179740407984450
  0.7499059870700050 -0.0013999403497355  0.4997054290292452
  0.8145601196840426  0.0593688334629597  0.5620625112365236
  0.7500305197204015 -0.0014664681489216  0.7500305197204015
  0.8123538553465071  0.0618361817678795  0.8123538553465071
  0.7537991356275976  0.2439748219398323  0.5013510583824260
  0.8179740407984450  0.3082121943902228  0.5606582373296923
  0.7500434822747494  0.2490903516577176  0.7500434822747494
  0.8120318541181587  0.3118041440597526  0.8120318541181587
  0.4995758514018583  0.4995758514018583  0.0001724267504055
  0.5623977798714166  0.5623977798714166  0.0618441545279296
  0.5017321956871851  0.5017321956871851  0.2513048729957721
  0.5709432416347016  0.5709432416347016  0.2982571545618879
  0.4997054290292452  0.7499059870700050 -0.0013999403497355
  0.5620625112365236  0.8145601196840426  0.0593688334629597
  0.5013510583824260  0.7537991356275976  0.2439748219398323
  0.5606582373296923  0.8179740407984450  0.3082121943902228
  0.7499059870700050  0.4997054290292452 -0.0013999403497355
  0.8145601196840426  0.5620625112365236  0.0593688334629597
  0.7537991356275976  0.5013510583824260  0.2439748219398323
  0.8179740407984450  0.5606582373296923  0.3082121943902228
  0.7500305197204015  0.7500305197204015 -0.0014664681489216
  0.8123538553465071  0.8123538553465071  0.0618361817678795
  0.7500434822747494  0.7500434822747494  0.2490903516577176
  0.8120318541181587  0.8120318541181587  0.3118041440597526
  0.4911161356371208  0.4911161356371208  0.7635577300747945
  0.5602835885929058  0.5602835885929058  0.8106553946846580
  0.4911161356371208  0.7635577300747945  0.4911161356371208
  0.5602835885929058  0.8106553946846580  0.5602835885929058
  0.4987930303035751  0.7481936982863124  0.7481936982863124
  0.5616708379961053  0.8110362401442397  0.8110362401442397
  0.7635577300747945  0.4911161356371208  0.4911161356371208
  0.8106553946846580  0.5602835885929058  0.5602835885929058
  0.7481936982863124  0.4987930303035751  0.7481936982863124
  0.8110362401442397  0.5616708379961053  0.8110362401442397
  0.7481936982863124  0.7481936982863124  0.4987930303035751
  0.8110362401442397  0.8110362401442397  0.5616708379961053
  0.7490055197079680  0.7490055197079680  0.7490055197079680
  0.8118849075987443  0.8118849075987443  0.8118849075987443
  0.5308514970499710  0.5308514970499710  0.5308514970499710
 
  0.00000000E+00  0.00000000E+00  0.00000000E+00
  0.00000000E+00  0.00000000E+00  0.00000000E+00
  0.00000000E+00  0.00000000E+00  0.00000000E+00
  0.00000000E+00  0.00000000E+00  0.00000000E+00
  0.00000000E+00  0.00000000E+00  0.00000000E+00
  0.00000000E+00  0.00000000E+00  0.00000000E+00
  0.00000000E+00  0.00000000E+00  0.00000000E+00
  0.00000000E+00  0.00000000E+00  0.00000000E+00
  0.00000000E+00  0.00000000E+00  0.00000000E+00
  0.00000000E+00  0.00000000E+00  0.00000000E+00
  0.00000000E+00  0.00000000E+00  0.00000000E+00
  0.00000000E+00  0.00000000E+00  0.00000000E+00
  0.00000000E+00  0.00000000E+00  0.00000000E+00
  0.00000000E+00  0.00000000E+00  0.00000000E+00
  0.00000000E+00  0.00000000E+00  0.00000000E+00
  0.00000000E+00  0.00000000E+00  0.00000000E+00
  0.00000000E+00  0.00000000E+00  0.00000000E+00
  0.00000000E+00  0.00000000E+00  0.00000000E+00
  0.00000000E+00  0.00000000E+00  0.00000000E+00
  0.00000000E+00  0.00000000E+00  0.00000000E+00
  0.00000000E+00  0.00000000E+00  0.00000000E+00
  0.00000000E+00  0.00000000E+00  0.00000000E+00
  0.00000000E+00  0.00000000E+00  0.00000000E+00
  0.00000000E+00  0.00000000E+00  0.00000000E+00
  0.00000000E+00  0.00000000E+00  0.00000000E+00
  0.00000000E+00  0.00000000E+00  0.00000000E+00
  0.00000000E+00  0.00000000E+00  0.00000000E+00
  0.00000000E+00  0.00000000E+00  0.00000000E+00
  0.00000000E+00  0.00000000E+00  0.00000000E+00
  0.00000000E+00  0.00000000E+00  0.00000000E+00
  0.00000000E+00  0.00000000E+00  0.00000000E+00
  0.00000000E+00  0.00000000E+00  0.00000000E+00
  0.00000000E+00  0.00000000E+00  0.00000000E+00
  0.00000000E+00  0.00000000E+00  0.00000000E+00
  0.00000000E+00  0.00000000E+00  0.00000000E+00
  0.00000000E+00  0.00000000E+00  0.00000000E+00
  0.00000000E+00  0.00000000E+00  0.00000000E+00
  0.00000000E+00  0.00000000E+00  0.00000000E+00
  0.00000000E+00  0.00000000E+00  0.00000000E+00
  0.00000000E+00  0.00000000E+00  0.00000000E+00
  0.00000000E+00  0.00000000E+00  0.00000000E+00
  0.00000000E+00  0.00000000E+00  0.00000000E+00
  0.00000000E+00  0.00000000E+00  0.00000000E+00
  0.00000000E+00  0.00000000E+00  0.00000000E+00
  0.00000000E+00  0.00000000E+00  0.00000000E+00
  0.00000000E+00  0.00000000E+00  0.00000000E+00
  0.00000000E+00  0.00000000E+00  0.00000000E+00
  0.00000000E+00  0.00000000E+00  0.00000000E+00
  0.00000000E+00  0.00000000E+00  0.00000000E+00
  0.00000000E+00  0.00000000E+00  0.00000000E+00
  0.00000000E+00  0.00000000E+00  0.00000000E+00
  0.00000000E+00  0.00000000E+00  0.00000000E+00
  0.00000000E+00  0.00000000E+00  0.00000000E+00
  0.00000000E+00  0.00000000E+00  0.00000000E+00
  0.00000000E+00  0.00000000E+00  0.00000000E+00
  0.00000000E+00  0.00000000E+00  0.00000000E+00
  0.00000000E+00  0.00000000E+00  0.00000000E+00
  0.00000000E+00  0.00000000E+00  0.00000000E+00
  0.00000000E+00  0.00000000E+00  0.00000000E+00
  0.00000000E+00  0.00000000E+00  0.00000000E+00
  0.00000000E+00  0.00000000E+00  0.00000000E+00
  0.00000000E+00  0.00000000E+00  0.00000000E+00
  0.00000000E+00  0.00000000E+00  0.00000000E+00
  0.00000000E+00  0.00000000E+00  0.00000000E+00
  0.00000000E+00  0.00000000E+00  0.00000000E+00
  0.00000000E+00  0.00000000E+00  0.00000000E+00
  0.00000000E+00  0.00000000E+00  0.00000000E+00
  0.00000000E+00  0.00000000E+00  0.00000000E+00
  0.00000000E+00  0.00000000E+00  0.00000000E+00
  0.00000000E+00  0.00000000E+00  0.00000000E+00
  0.00000000E+00  0.00000000E+00  0.00000000E+00
  0.00000000E+00  0.00000000E+00  0.00000000E+00
  0.00000000E+00  0.00000000E+00  0.00000000E+00
  0.00000000E+00  0.00000000E+00  0.00000000E+00
  0.00000000E+00  0.00000000E+00  0.00000000E+00
  0.00000000E+00  0.00000000E+00  0.00000000E+00
  0.00000000E+00  0.00000000E+00  0.00000000E+00
  0.00000000E+00  0.00000000E+00  0.00000000E+00
  0.00000000E+00  0.00000000E+00  0.00000000E+00
  0.00000000E+00  0.00000000E+00  0.00000000E+00
  0.00000000E+00  0.00000000E+00  0.00000000E+00
  0.00000000E+00  0.00000000E+00  0.00000000E+00
  0.00000000E+00  0.00000000E+00  0.00000000E+00
  0.00000000E+00  0.00000000E+00  0.00000000E+00
  0.00000000E+00  0.00000000E+00  0.00000000E+00
  0.00000000E+00  0.00000000E+00  0.00000000E+00
  0.00000000E+00  0.00000000E+00  0.00000000E+00
  0.00000000E+00  0.00000000E+00  0.00000000E+00
  0.00000000E+00  0.00000000E+00  0.00000000E+00
  0.00000000E+00  0.00000000E+00  0.00000000E+00
  0.00000000E+00  0.00000000E+00  0.00000000E+00
  0.00000000E+00  0.00000000E+00  0.00000000E+00
  0.00000000E+00  0.00000000E+00  0.00000000E+00
  0.00000000E+00  0.00000000E+00  0.00000000E+00
  0.00000000E+00  0.00000000E+00  0.00000000E+00
  0.00000000E+00  0.00000000E+00  0.00000000E+00
  0.00000000E+00  0.00000000E+00  0.00000000E+00
  0.00000000E+00  0.00000000E+00  0.00000000E+00
  0.00000000E+00  0.00000000E+00  0.00000000E+00
  0.00000000E+00  0.00000000E+00  0.00000000E+00
  0.00000000E+00  0.00000000E+00  0.00000000E+00
  0.00000000E+00  0.00000000E+00  0.00000000E+00
  0.00000000E+00  0.00000000E+00  0.00000000E+00
  0.00000000E+00  0.00000000E+00  0.00000000E+00
  0.00000000E+00  0.00000000E+00  0.00000000E+00
  0.00000000E+00  0.00000000E+00  0.00000000E+00
  0.00000000E+00  0.00000000E+00  0.00000000E+00
  0.00000000E+00  0.00000000E+00  0.00000000E+00
  0.00000000E+00  0.00000000E+00  0.00000000E+00
  0.00000000E+00  0.00000000E+00  0.00000000E+00
  0.00000000E+00  0.00000000E+00  0.00000000E+00
  0.00000000E+00  0.00000000E+00  0.00000000E+00
  0.00000000E+00  0.00000000E+00  0.00000000E+00
  0.00000000E+00  0.00000000E+00  0.00000000E+00
  0.00000000E+00  0.00000000E+00  0.00000000E+00
  0.00000000E+00  0.00000000E+00  0.00000000E+00
  0.00000000E+00  0.00000000E+00  0.00000000E+00
  0.00000000E+00  0.00000000E+00  0.00000000E+00
  0.00000000E+00  0.00000000E+00  0.00000000E+00
  0.00000000E+00  0.00000000E+00  0.00000000E+00
  0.00000000E+00  0.00000000E+00  0.00000000E+00
  0.00000000E+00  0.00000000E+00  0.00000000E+00
  0.00000000E+00  0.00000000E+00  0.00000000E+00
  0.00000000E+00  0.00000000E+00  0.00000000E+00
  0.00000000E+00  0.00000000E+00  0.00000000E+00
  0.00000000E+00  0.00000000E+00  0.00000000E+00
  0.00000000E+00  0.00000000E+00  0.00000000E+00
